Optimal - objective value 547.00000000
      0 C_0                    30                       0
      1 C_1       29.0000000000001                       0
      2 C_2                    38                       0
      3 C_3                    18                       0
      4 C_4                    19                       0
      5 C_5                    26                       0
      6 C_6       7.00000000000001                       0
      7 C_7                    10                       0
      8 x_0_0                   1                     216
     12 x_1_1                   1                     864
     16 x_2_2                   1                     216
     17 x_3_0                   1                    1296
     21 x_4_1                   1                    2592
     25 x_5_2                   1                    1512
     27 x_6_1                   1                    4536
     31 x_7_2                   1                    3672
     32 d_0_1_0                 1                       0
     33 d_0_1_1                 1                       0
     34 d_0_1_2                 1                       0
     35 d_0_2_0                 1                       0
     36 d_0_2_1                 1                       0
     37 d_0_2_2                 1                       0
     39 d_0_3_1                 1                       0
     40 d_0_3_2                 1                       0
     41 d_0_4_0                 1                       0
     44 d_0_5_0                 1                       0
     45 d_0_5_1                 1                       0
     46 d_0_5_2                 1                       0
     48 d_0_6_1                 1                       0
     49 d_0_6_2                 1                       0
     50 d_0_7_0                 1                       0
     51 d_0_7_1                 1                       0
     52 d_0_7_2                 1                       0
     55 d_1_2_2                 1                       0
     57 d_1_3_1                 1                       0
     58 d_1_3_2                 1                       0
     61 d_1_4_2                 1                       0
     62 d_1_5_0                 1                       0
     64 d_1_5_2                 1                       0
     65 d_1_6_0                 1                       0
     67 d_1_6_2                 1                       0
     68 d_1_7_0                 1                       0
     70 d_1_7_2                 1                       0
     71 d_2_3_0                 1                       0
     72 d_2_3_1                 1                       0
     75 d_2_4_1                 1                       0
     76 d_2_4_2                 1                       0
     77 d_2_5_0                 1                       0
     78 d_2_5_1                 1                       0
     80 d_2_6_0                 1                       0
     84 d_2_7_1                 1                       0
     90 d_3_5_1                 1                       0
     96 d_3_7_1                 1                       0
     98 d_4_5_0                 1                       0
    100 d_4_5_2                 1                       0
    104 d_4_7_0                 1                       0
    105 d_4_7_1                 1                       0
    106 d_4_7_2                 1                       0
    107 d_5_6_0                 1                       0
    109 d_5_6_2                 1                       0
